NAME: u1060.tour
LENGTH: 225547
TYPE: TOUR
DIMENSION: 1060
SEED: 221818014
ALGORITHM: Ant Colony System
TOUR_SECTION
458
457
456
459
462
463
464
423
424
425
426
427
418
417
416
419
414
415
413
420
422
421
412
411
410
409
408
407
404
405
406
388
387
386
385
384
383
382
381
380
379
378
377
376
375
374
281
282
283
284
285
286
254
255
253
252
250
236
235
234
233
232
224
227
226
225
856
855
857
858
860
859
220
222
223
221
219
218
217
209
208
207
201
202
203
204
205
206
210
211
212
213
214
216
215
867
868
869
871
872
870
875
876
877
879
878
874
873
880
881
882
889
883
884
886
887
885
132
114
888
112
113
115
116
120
121
118
119
117
111
109
110
890
891
893
894
896
898
899
897
895
901
900
902
903
906
904
905
907
913
912
908
909
910
911
866
865
864
863
862
861
921
919
915
914
916
917
926
927
925
924
918
920
922
923
851
850
849
848
847
852
846
845
844
842
843
854
853
229
228
230
231
237
238
239
240
247
251
249
248
310
311
312
287
288
289
292
291
290
293
294
295
301
303
304
309
308
315
313
314
245
246
244
242
241
243
840
841
839
819
820
837
836
838
939
937
938
935
936
940
941
942
944
943
967
968
969
966
948
945
946
947
934
933
932
929
931
930
928
953
952
954
951
955
956
950
949
964
965
963
962
961
960
957
959
958
80
79
78
82
81
77
76
75
74
73
72
71
70
69
68
67
993
992
991
990
986
984
980
979
978
977
976
975
971
970
972
973
974
982
981
983
985
987
988
989
994
995
996
997
998
999
1002
1000
1001
1014
1015
1016
1013
1012
1011
1009
1010
1008
1003
1005
1004
1006
1007
1023
1024
1025
1022
1026
1021
1020
1017
1018
1019
1027
1028
1030
1029
64
65
66
63
62
60
61
1031
1032
1033
1034
1035
1036
1037
1038
1045
1046
1047
1048
1049
1050
1043
1044
1042
1041
1040
1039
37
57
56
58
59
55
54
53
52
51
50
49
46
45
44
43
39
38
40
42
41
35
36
34
33
25
24
47
48
83
89
90
91
92
88
87
86
85
84
100
101
102
98
99
94
93
892
95
96
97
108
103
104
107
106
105
15
16
14
13
20
17
18
19
21
22
23
26
27
28
29
32
31
30
12
11
10
1053
1054
1051
1052
1055
1056
1057
1058
1059
1060
4
1
3
2
5
6
7
8
9
122
123
124
129
128
131
130
125
126
127
137
136
135
134
133
138
139
140
141
142
143
144
145
146
147
148
149
150
151
152
153
154
155
157
158
156
165
166
160
159
161
162
163
164
167
168
169
170
171
172
173
174
175
176
177
178
179
180
181
182
183
184
186
185
187
188
189
190
191
192
193
194
195
199
200
259
260
261
262
263
258
257
256
265
266
264
198
197
196
267
268
272
271
270
273
269
277
278
280
279
390
389
276
275
274
391
392
393
394
395
396
397
398
399
400
403
401
402
428
429
430
431
432
433
435
434
436
438
437
601
602
603
611
610
606
605
604
607
609
608
671
683
684
685
686
687
688
689
690
682
681
680
676
675
674
672
673
670
668
669
635
634
633
632
628
626
622
621
620
619
613
612
614
615
616
617
618
624
623
625
627
629
630
631
636
637
638
639
640
641
644
645
647
646
648
651
650
652
653
654
659
655
657
658
663
660
649
661
662
642
643
664
667
665
666
656
719
718
717
714
715
716
678
677
679
712
713
711
710
709
720
721
722
708
707
706
705
704
703
702
691
692
693
694
695
696
697
591
590
589
569
571
570
588
587
586
584
585
580
581
583
582
698
701
699
700
723
724
725
726
727
728
729
731
730
735
734
732
733
739
740
741
742
743
744
745
746
747
748
749
538
537
536
539
534
535
750
751
752
753
754
755
756
757
758
759
760
761
762
763
764
765
766
767
769
770
768
777
778
776
771
772
773
774
775
779
780
781
784
782
783
785
786
787
788
789
790
791
792
793
794
795
796
798
797
799
800
801
802
803
804
805
343
342
344
347
348
346
345
349
357
356
355
354
353
352
350
351
320
321
326
327
323
322
324
325
330
329
328
339
340
341
338
337
336
335
333
331
332
334
813
812
811
810
807
806
808
809
825
826
831
832
830
829
828
827
833
834
824
823
822
835
821
818
814
815
817
816
317
316
307
306
318
319
305
302
300
298
299
297
296
371
373
372
370
365
364
363
358
362
361
360
359
366
367
369
368
490
489
488
487
486
485
484
492
491
493
494
495
499
507
508
509
510
511
506
513
512
514
505
501
500
502
498
496
497
519
520
518
503
504
516
515
517
521
522
523
524
525
532
533
531
530
529
528
527
526
479
481
480
482
483
474
473
466
470
471
472
476
475
478
477
469
468
467
465
461
460
556
555
554
553
552
551
550
540
541
542
543
544
549
548
547
546
545
738
737
736
578
577
576
575
579
574
573
572
568
567
566
565
564
563
562
557
561
560
558
559
455
454
453
595
592
593
594
596
597
598
452
451
446
599
600
445
444
443
439
440
441
442
448
447
449
450
-1
EOF
